40
1 0 4
2 0 3
2 1 4
3 0 7
3 1 9
3 2 4
4 0 9
4 1 5
4 2 1
4 3 4
5 0 2
5 1 3
5 2 6
5 3 2
5 4 7
6 0 9
6 1 1
6 2 2
6 3 9
6 4 5
6 5 9
7 0 5
7 1 1
7 2 3
7 3 6
7 4 1
7 5 9
7 6 1
8 0 8
8 1 7
8 2 6
8 3 6
8 4 9
8 5 3
8 6 4
8 7 4
9 0 4
9 1 4
9 2 9
9 3 2
9 4 6
9 5 8
9 6 3
9 7 9
9 8 5
10 0 8
10 1 6
10 2 2
10 3 9
10 4 9
10 5 5
10 6 7
10 7 2
10 8 6
10 9 1
11 0 6
11 1 9
11 2 4
11 3 5
11 4 5
11 5 6
11 6 5
11 7 9
11 8 5
11 9 1
11 10 3
12 0 4
12 1 9
12 2 4
12 3 8
12 4 5
12 5 5
12 6 1
12 7 7
12 8 2
12 9 2
12 10 3
12 11 9
13 0 3
13 1 7
13 2 7
13 3 8
13 4 1
13 5 3
13 6 5
13 7 3
13 8 6
13 9 4
13 10 3
13 11 5
13 12 8
14 0 7
14 1 2
14 2 7
14 3 7
14 4 9
14 5 8
14 6 1
14 7 6
14 8 5
14 9 3
14 10 8
14 11 3
14 12 8
14 13 8
15 0 3
15 1 3
15 2 6
15 3 5
15 4 6
15 5 5
15 6 9
15 7 6
15 8 8
15 9 4
15 10 1
15 11 2
15 12 5
15 13 2
15 14 1
16 0 4
16 1 1
16 2 1
16 3 1
16 4 6
16 5 7
16 6 3
16 7 6
16 8 1
16 9 9
16 10 3
16 11 1
16 12 9
16 13 9
16 14 4
16 15 9
17 0 8
17 1 5
17 2 5
17 3 9
17 4 8
17 5 6
17 6 3
17 7 7
17 8 3
17 9 5
17 10 7
17 11 3
17 12 1
17 13 3
17 14 5
17 15 3
17 16 7
18 0 9
18 1 3
18 2 2
18 3 5
18 4 5
18 5 4
18 6 4
18 7 1
18 8 2
18 9 6
18 10 4
18 11 7
18 12 3
18 13 7
18 14 5
18 15 7
18 16 6
18 17 1
19 0 2
19 1 1
19 2 3
19 3 6
19 4 4
19 5 6
19 6 3
19 7 5
19 8 1
19 9 5
19 10 6
19 11 6
19 12 7
19 13 9
19 14 6
19 15 1
19 16 7
19 17 7
19 18 6
20 0 6
20 1 3
20 2 4
20 3 3
20 4 8
20 5 8
20 6 3
20 7 5
20 8 6
20 9 2
20 10 5
20 11 5
20 12 5
20 13 3
20 14 1
20 15 8
20 16 1
20 17 9
20 18 4
20 19 1
21 0 4
21 1 9
21 2 9
21 3 3
21 4 8
21 5 1
21 6 1
21 7 8
21 8 6
21 9 7
21 10 3
21 11 4
21 12 1
21 13 3
21 14 2
21 15 9
21 16 3
21 17 2
21 18 3
21 19 3
21 20 9
22 0 5
22 1 8
22 2 1
22 3 7
22 4 4
22 5 2
22 6 7
22 7 4
22 8 6
22 9 5
22 10 4
22 11 9
22 12 3
22 13 7
22 14 9
22 15 4
22 16 8
22 17 8
22 18 6
22 19 5
22 20 7
22 21 1
23 0 5
23 1 5
23 2 6
23 3 5
23 4 7
23 5 5
23 6 9
23 7 1
23 8 6
23 9 8
23 10 7
23 11 3
23 12 5
23 13 5
23 14 3
23 15 9
23 16 2
23 17 7
23 18 9
23 19 1
23 20 2
23 21 2
23 22 1
24 0 7
24 1 6
24 2 1
24 3 1
24 4 4
24 5 9
24 6 5
24 7 4
24 8 2
24 9 9
24 10 6
24 11 1
24 12 8
24 13 9
24 14 4
24 15 4
24 16 4
24 17 8
24 18 6
24 19 9
24 20 3
24 21 2
24 22 9
24 23 9
25 0 2
25 1 3
25 2 1
25 3 5
25 4 5
25 5 5
25 6 4
25 7 5
25 8 1
25 9 3
25 10 9
25 11 6
25 12 7
25 13 2
25 14 9
25 15 2
25 16 3
25 17 2
25 18 9
25 19 4
25 20 5
25 21 1
25 22 9
25 23 6
25 24 6
26 0 8
26 1 7
26 2 8
26 3 7
26 4 3
26 5 9
26 6 7
26 7 4
26 8 8
26 9 5
26 10 2
26 11 4
26 12 8
26 13 1
26 14 2
26 15 1
26 16 9
26 17 4
26 18 9
26 19 7
26 20 4
26 21 1
26 22 9
26 23 2
26 24 6
26 25 8
27 0 3
27 1 9
27 2 7
27 3 9
27 4 5
27 5 5
27 6 8
27 7 8
27 8 4
27 9 1
27 10 1
27 11 4
27 12 7
27 13 7
27 14 5
27 15 9
27 16 6
27 17 8
27 18 8
27 19 2
27 20 5
27 21 1
27 22 5
27 23 4
27 24 9
27 25 7
27 26 6
28 0 1
28 1 5
28 2 1
28 3 2
28 4 9
28 5 4
28 6 2
28 7 5
28 8 4
28 9 4
28 10 7
28 11 6
28 12 4
28 13 4
28 14 3
28 15 6
28 16 5
28 17 5
28 18 6
28 19 1
28 20 3
28 21 6
28 22 3
28 23 2
28 24 6
28 25 2
28 26 6
28 27 5
29 0 6
29 1 7
29 2 2
29 3 6
29 4 4
29 5 8
29 6 7
29 7 2
29 8 7
29 9 4
29 10 3
29 11 4
29 12 7
29 13 8
29 14 6
29 15 8
29 16 7
29 17 5
29 18 7
29 19 5
29 20 8
29 21 1
29 22 5
29 23 3
29 24 9
29 25 5
29 26 9
29 27 2
29 28 3
30 0 3
30 1 6
30 2 3
30 3 1
30 4 9
30 5 7
30 6 7
30 7 3
30 8 4
30 9 4
30 10 5
30 11 8
30 12 6
30 13 7
30 14 7
30 15 5
30 16 1
30 17 2
30 18 8
30 19 2
30 20 8
30 21 1
30 22 4
30 23 8
30 24 9
30 25 4
30 26 8
30 27 1
30 28 4
30 29 4
31 0 4
31 1 2
31 2 6
31 3 4
31 4 8
31 5 7
31 6 1
31 7 5
31 8 1
31 9 5
31 10 9
31 11 2
31 12 3
31 13 4
31 14 8
31 15 7
31 16 2
31 17 6
31 18 5
31 19 8
31 20 2
31 21 3
31 22 7
31 23 7
31 24 8
31 25 9
31 26 7
31 27 2
31 28 1
31 29 2
31 30 1
32 0 1
32 1 1
32 2 9
32 3 6
32 4 5
32 5 4
32 6 4
32 7 9
32 8 2
32 9 1
32 10 8
32 11 6
32 12 6
32 13 8
32 14 8
32 15 6
32 16 8
32 17 7
32 18 5
32 19 7
32 20 6
32 21 4
32 22 7
32 23 5
32 24 9
32 25 4
32 26 6
32 27 1
32 28 7
32 29 9
32 30 6
32 31 8
33 0 1
33 1 8
33 2 8
33 3 4
33 4 3
33 5 1
33 6 6
33 7 4
33 8 7
33 9 6
33 10 5
33 11 3
33 12 3
33 13 7
33 14 4
33 15 1
33 16 2
33 17 3
33 18 3
33 19 3
33 20 3
33 21 8
33 22 1
33 23 2
33 24 1
33 25 5
33 26 9
33 27 9
33 28 1
33 29 2
33 30 5
33 31 3
33 32 3
34 0 3
34 1 2
34 2 7
34 3 5
34 4 6
34 5 7
34 6 1
34 7 2
34 8 1
34 9 9
34 10 1
34 11 3
34 12 4
34 13 6
34 14 5
34 15 9
34 16 8
34 17 1
34 18 8
34 19 6
34 20 5
34 21 8
34 22 8
34 23 2
34 24 5
34 25 8
34 26 2
34 27 7
34 28 9
34 29 7
34 30 5
34 31 7
34 32 2
34 33 5
35 0 5
35 1 6
35 2 6
35 3 5
35 4 3
35 5 5
35 6 6
35 7 5
35 8 1
35 9 2
35 10 3
35 11 1
35 12 5
35 13 8
35 14 5
35 15 5
35 16 9
35 17 7
35 18 4
35 19 5
35 20 5
35 21 4
35 22 9
35 23 6
35 24 3
35 25 1
35 26 8
35 27 8
35 28 7
35 29 2
35 30 9
35 31 8
35 32 4
35 33 9
35 34 4
36 0 4
36 1 3
36 2 1
36 3 8
36 4 5
36 5 1
36 6 9
36 7 8
36 8 8
36 9 8
36 10 1
36 11 9
36 12 3
36 13 8
36 14 4
36 15 6
36 16 9
36 17 4
36 18 2
36 19 5
36 20 3
36 21 8
36 22 3
36 23 5
36 24 1
36 25 3
36 26 4
36 27 9
36 28 5
36 29 8
36 30 5
36 31 7
36 32 2
36 33 8
36 34 8
36 35 3
37 0 6
37 1 5
37 2 9
37 3 2
37 4 2
37 5 6
37 6 6
37 7 8
37 8 1
37 9 7
37 10 8
37 11 3
37 12 8
37 13 7
37 14 2
37 15 9
37 16 3
37 17 9
37 18 6
37 19 1
37 20 8
37 21 7
37 22 6
37 23 1
37 24 4
37 25 9
37 26 1
37 27 5
37 28 9
37 29 3
37 30 6
37 31 4
37 32 4
37 33 7
37 34 9
37 35 8
37 36 5
38 0 6
38 1 7
38 2 3
38 3 6
38 4 2
38 5 5
38 6 4
38 7 4
38 8 1
38 9 6
38 10 6
38 11 3
38 12 3
38 13 4
38 14 7
38 15 2
38 16 3
38 17 1
38 18 2
38 19 2
38 20 3
38 21 6
38 22 6
38 23 9
38 24 4
38 25 2
38 26 4
38 27 7
38 28 3
38 29 4
38 30 2
38 31 4
38 32 7
38 33 8
38 34 9
38 35 6
38 36 3
38 37 3
39 0 6
39 1 1
39 2 2
39 3 3
39 4 8
39 5 1
39 6 2
39 7 6
39 8 6
39 9 3
39 10 3
39 11 9
39 12 1
39 13 9
39 14 2
39 15 9
39 16 5
39 17 8
39 18 1
39 19 4
39 20 4
39 21 3
39 22 6
39 23 3
39 24 2
39 25 5
39 26 5
39 27 8
39 28 3
39 29 4
39 30 7
39 31 9
39 32 6
39 33 9
39 34 4
39 35 3
39 36 4
39 37 8
39 38 2
